(set-logic QF_BV)
(declare-fun x0 () (_ BitVec 32))
(declare-fun x1 () (_ BitVec 32))
(declare-fun x2 () (_ BitVec 16))
(declare-fun x3 () (_ BitVec 32))
(declare-fun x4 () (_ BitVec 32))
(declare-fun x5 () Bool)
(declare-fun x6 () (_ BitVec 8))
(declare-fun x7 () (_ BitVec 16))
(assert (let ((?v_13 (bvadd x4 x1))) (let ((?v_15 (bvadd ?v_13 (_ bv0 32)))) (let ((?v_19 (bvadd ?v_15 x0))) (let ((?v_16 (bvadd ?v_19 x3)) (?v_17 ((_ zero_extend 24) x6))) (and true (= x2 x7) (bvult ?v_16 (bvadd ?v_17 (_ bv1 32))) true x5 true (= (bvadd ?v_16 (bvsub (_ bv4294967295 32) ?v_17)) (_ bv0 32)) true))))))
(check-sat)
(exit)
